p cnf 28 202
1 5 9 13 17 21 25 0
2 6 10 14 18 22 26 0
3 7 11 15 19 23 27 0
4 8 12 16 20 24 28 0
-1 -2 0
-1 -3 0
-1 -4 0
-2 -3 0
-2 -4 0
-3 -4 0
-5 -6 0
-5 -7 0
-5 -8 0
-6 -7 0
-6 -8 0
-7 -8 0
-9 -10 0
-9 -11 0
-9 -12 0
-10 -11 0
-10 -12 0
-11 -12 0
-13 -14 0
-13 -15 0
-13 -16 0
-14 -15 0
-14 -16 0
-15 -16 0
-17 -18 0
-17 -19 0
-17 -20 0
-18 -19 0
-18 -20 0
-19 -20 0
-21 -22 0
-21 -23 0
-21 -24 0
-22 -23 0
-22 -24 0
-23 -24 0
-25 -26 0
-25 -27 0
-25 -28 0
-26 -27 0
-26 -28 0
-27 -28 0
-1 -6 0
-1 -7 0
-1 -8 0
-2 -5 0
-2 -7 0
-2 -8 0
-3 -5 0
-3 -6 0
-3 -8 0
-4 -5 0
-4 -6 0
-4 -7 0
-1 -10 0
-1 -11 0
-1 -12 0
-2 -9 0
-2 -11 0
-2 -12 0
-3 -9 0
-3 -10 0
-3 -12 0
-4 -9 0
-4 -10 0
-4 -11 0
-1 -18 0
-1 -19 0
-1 -20 0
-2 -17 0
-2 -19 0
-2 -20 0
-3 -17 0
-3 -18 0
-3 -20 0
-4 -17 0
-4 -18 0
-4 -19 0
-1 -22 0
-1 -23 0
-1 -24 0
-2 -21 0
-2 -23 0
-2 -24 0
-3 -21 0
-3 -22 0
-3 -24 0
-4 -21 0
-4 -22 0
-4 -23 0
-1 -26 0
-1 -27 0
-1 -28 0
-2 -25 0
-2 -27 0
-2 -28 0
-3 -25 0
-3 -26 0
-3 -28 0
-4 -25 0
-4 -26 0
-4 -27 0
-5 -10 0
-5 -11 0
-5 -12 0
-6 -9 0
-6 -11 0
-6 -12 0
-7 -9 0
-7 -10 0
-7 -12 0
-8 -9 0
-8 -10 0
-8 -11 0
-5 -18 0
-5 -19 0
-5 -20 0
-6 -17 0
-6 -19 0
-6 -20 0
-7 -17 0
-7 -18 0
-7 -20 0
-8 -17 0
-8 -18 0
-8 -19 0
-5 -22 0
-5 -23 0
-5 -24 0
-6 -21 0
-6 -23 0
-6 -24 0
-7 -21 0
-7 -22 0
-7 -24 0
-8 -21 0
-8 -22 0
-8 -23 0
-5 -26 0
-5 -27 0
-5 -28 0
-6 -25 0
-6 -27 0
-6 -28 0
-7 -25 0
-7 -26 0
-7 -28 0
-8 -25 0
-8 -26 0
-8 -27 0
-9 -22 0
-9 -23 0
-9 -24 0
-10 -21 0
-10 -23 0
-10 -24 0
-11 -21 0
-11 -22 0
-11 -24 0
-12 -21 0
-12 -22 0
-12 -23 0
-9 -26 0
-9 -27 0
-9 -28 0
-10 -25 0
-10 -27 0
-10 -28 0
-11 -25 0
-11 -26 0
-11 -28 0
-12 -25 0
-12 -26 0
-12 -27 0
-13 -18 0
-13 -19 0
-13 -20 0
-14 -17 0
-14 -19 0
-14 -20 0
-15 -17 0
-15 -18 0
-15 -20 0
-16 -17 0
-16 -18 0
-16 -19 0
-17 -26 0
-17 -27 0
-17 -28 0
-18 -25 0
-18 -27 0
-18 -28 0
-19 -25 0
-19 -26 0
-19 -28 0
-20 -25 0
-20 -26 0
-20 -27 0
